language ESSENCE' 1.0

letting C_FunctionND be
        [[0, 0, 0, 0, 0, 0, 0, 0, 0, 0, 0, 0, 0, 0, 0, 0, 0, 0, 0, 0, 0, 0; int(0..21)],
         [1, 0, 0, 0, 0, 0, 0, 0, 0, 0, 0, 0, 0, 0, 0, 0, 0, 0, 0, 0, 0, 0; int(0..21)],
         [1, 0, 0, 0, 0, 0, 0, 0, 0, 0, 0, 0, 0, 0, 0, 0, 0, 0, 0, 0, 0, 0; int(0..21)],
         [1, 0, 0, 0, 0, 0, 0, 0, 0, 0, 0, 0, 0, 0, 0, 0, 0, 0, 0, 0, 0, 0; int(0..21)],
         [1, 0, 0, 0, 0, 0, 0, 0, 0, 0, 0, 0, 0, 0, 0, 0, 0, 0, 0, 0, 0, 0; int(0..21)],
         [1, 0, 0, 0, 0, 0, 0, 0, 0, 0, 0, 0, 0, 0, 0, 0, 0, 0, 0, 0, 0, 0; int(0..21)],
         [1, 0, 0, 0, 0, 0, 0, 0, 0, 0, 0, 0, 0, 0, 0, 0, 0, 0, 0, 0, 0, 0; int(0..21)],
         [1, 0, 0, 0, 0, 0, 0, 0, 0, 0, 0, 0, 0, 0, 0, 0, 0, 0, 0, 0, 0, 0; int(0..21)],
         [1, 0, 0, 0, 0, 0, 0, 0, 0, 0, 0, 0, 0, 0, 0, 0, 0, 0, 0, 0, 0, 0; int(0..21)],
         [0, 1, 1, 0, 0, 1, 0, 0, 0, 0, 0, 0, 0, 0, 0, 0, 0, 0, 0, 0, 0, 0; int(0..21)],
         [0, 1, 0, 1, 0, 0, 0, 1, 0, 0, 0, 0, 0, 0, 0, 0, 0, 0, 0, 0, 0, 0; int(0..21)],
         [0, 1, 0, 0, 1, 0, 0, 0, 1, 0, 0, 0, 0, 0, 0, 0, 0, 0, 0, 0, 0, 0; int(0..21)],
         [0, 1, 0, 0, 0, 0, 1, 0, 0, 0, 0, 0, 0, 0, 0, 0, 0, 0, 0, 0, 0, 0; int(0..21)],
         [0, 0, 1, 1, 0, 0, 1, 0, 1, 0, 0, 0, 0, 0, 0, 0, 0, 0, 0, 0, 0, 0; int(0..21)],
         [0, 0, 1, 0, 1, 0, 0, 0, 0, 0, 0, 0, 0, 0, 0, 0, 0, 0, 0, 0, 0, 0; int(0..21)],
         [0, 0, 1, 0, 0, 0, 0, 1, 0, 0, 0, 0, 0, 0, 0, 0, 0, 0, 0, 0, 0, 0; int(0..21)],
         [0, 0, 0, 1, 1, 0, 0, 0, 0, 0, 0, 0, 0, 0, 0, 0, 0, 0, 0, 0, 0, 0; int(0..21)],
         [0, 0, 0, 1, 0, 1, 0, 0, 0, 0, 0, 0, 0, 0, 0, 0, 0, 0, 0, 0, 0, 0; int(0..21)],
         [0, 0, 0, 0, 1, 1, 1, 1, 0, 0, 0, 0, 0, 0, 0, 0, 0, 0, 0, 0, 0, 0; int(0..21)],
         [0, 0, 0, 0, 0, 1, 0, 0, 1, 0, 0, 0, 0, 0, 0, 0, 0, 0, 0, 0, 0, 0; int(0..21)],
         [0, 0, 0, 0, 0, 0, 0, 1, 1, 0, 0, 0, 0, 0, 0, 0, 0, 0, 0, 0, 0, 0; int(0..21)],
         [0, 0, 0, 0, 0, 0, 0, 0, 0, 1, 1, 1, 1, 1, 1, 1, 1, 1, 1, 1, 1, 0; int(0..21)];
             int(0..21)]
$ Visualisation for C_FunctionND
$ 0 0 0 0 0 0 0 0 0 0 0 0 0 0 0 0 0 0 0 0 0 0
$ 1 0 0 0 0 0 0 0 0 0 0 0 0 0 0 0 0 0 0 0 0 0
$ 1 0 0 0 0 0 0 0 0 0 0 0 0 0 0 0 0 0 0 0 0 0
$ 1 0 0 0 0 0 0 0 0 0 0 0 0 0 0 0 0 0 0 0 0 0
$ 1 0 0 0 0 0 0 0 0 0 0 0 0 0 0 0 0 0 0 0 0 0
$ 1 0 0 0 0 0 0 0 0 0 0 0 0 0 0 0 0 0 0 0 0 0
$ 1 0 0 0 0 0 0 0 0 0 0 0 0 0 0 0 0 0 0 0 0 0
$ 1 0 0 0 0 0 0 0 0 0 0 0 0 0 0 0 0 0 0 0 0 0
$ 1 0 0 0 0 0 0 0 0 0 0 0 0 0 0 0 0 0 0 0 0 0
$ 0 1 1 0 0 1 0 0 0 0 0 0 0 0 0 0 0 0 0 0 0 0
$ 0 1 0 1 0 0 0 1 0 0 0 0 0 0 0 0 0 0 0 0 0 0
$ 0 1 0 0 1 0 0 0 1 0 0 0 0 0 0 0 0 0 0 0 0 0
$ 0 1 0 0 0 0 1 0 0 0 0 0 0 0 0 0 0 0 0 0 0 0
$ 0 0 1 1 0 0 1 0 1 0 0 0 0 0 0 0 0 0 0 0 0 0
$ 0 0 1 0 1 0 0 0 0 0 0 0 0 0 0 0 0 0 0 0 0 0
$ 0 0 1 0 0 0 0 1 0 0 0 0 0 0 0 0 0 0 0 0 0 0
$ 0 0 0 1 1 0 0 0 0 0 0 0 0 0 0 0 0 0 0 0 0 0
$ 0 0 0 1 0 1 0 0 0 0 0 0 0 0 0 0 0 0 0 0 0 0
$ 0 0 0 0 1 1 1 1 0 0 0 0 0 0 0 0 0 0 0 0 0 0
$ 0 0 0 0 0 1 0 0 1 0 0 0 0 0 0 0 0 0 0 0 0 0
$ 0 0 0 0 0 0 0 1 1 0 0 0 0 0 0 0 0 0 0 0 0 0
$ 0 0 0 0 0 0 0 0 0 1 1 1 1 1 1 1 1 1 1 1 1 0

letting J_FunctionND be
        [[0, 1, 2, 3, 4, 5, 6, 7, 8, 9, 10, 11, 12, 13, 14, 15, 16, 17, 18, 19, 20, 21; int(0..21)],
         [1, 1, 9, 10, 11, 9, 12, 10, 11, 9, 10, 11, 12, 21, 21, 21, 21, 21, 21, 21, 21, 21; int(0..21)],
         [2, 9, 2, 13, 14, 9, 13, 15, 13, 9, 21, 21, 21, 13, 14, 15, 21, 21, 21, 21, 21, 21; int(0..21)],
         [3, 10, 13, 3, 16, 17, 13, 10, 13, 21, 10, 21, 21, 13, 21, 21, 16, 17, 21, 21, 21, 21; int(0..21)],
         [4, 11, 14, 16, 4, 18, 18, 18, 11, 21, 21, 11, 21, 21, 14, 21, 16, 21, 18, 21, 21, 21; int(0..21)],
         [5, 9, 9, 17, 18, 5, 18, 18, 19, 9, 21, 21, 21, 21, 21, 21, 21, 17, 18, 19, 21, 21; int(0..21)],
         [6, 12, 13, 13, 18, 18, 6, 18, 13, 21, 21, 21, 12, 13, 21, 21, 21, 21, 18, 21, 21, 21; int(0..21)],
         [7, 10, 15, 10, 18, 18, 18, 7, 20, 21, 10, 21, 21, 21, 21, 15, 21, 21, 18, 21, 20, 21; int(0..21)],
         [8, 11, 13, 13, 11, 19, 13, 20, 8, 21, 21, 11, 21, 13, 21, 21, 21, 21, 21, 19, 20, 21; int(0..21)],
         [9, 9, 9, 21, 21, 9, 21, 21, 21, 9, 21, 21, 21, 21, 21, 21, 21, 21, 21, 21, 21, 21; int(0..21)],
         [10, 10, 21, 10, 21, 21, 21, 10, 21, 21, 10, 21, 21, 21, 21, 21, 21, 21, 21, 21, 21, 21; int(0..21)],
         [11, 11, 21, 21, 11, 21, 21, 21, 11, 21, 21, 11, 21, 21, 21, 21, 21, 21, 21, 21, 21, 21; int(0..21)],
         [12, 12, 21, 21, 21, 21, 12, 21, 21, 21, 21, 21, 12, 21, 21, 21, 21, 21, 21, 21, 21, 21; int(0..21)],
         [13, 21, 13, 13, 21, 21, 13, 21, 13, 21, 21, 21, 21, 13, 21, 21, 21, 21, 21, 21, 21, 21; int(0..21)],
         [14, 21, 14, 21, 14, 21, 21, 21, 21, 21, 21, 21, 21, 21, 14, 21, 21, 21, 21, 21, 21, 21; int(0..21)],
         [15, 21, 15, 21, 21, 21, 21, 15, 21, 21, 21, 21, 21, 21, 21, 15, 21, 21, 21, 21, 21, 21; int(0..21)],
         [16, 21, 21, 16, 16, 21, 21, 21, 21, 21, 21, 21, 21, 21, 21, 21, 16, 21, 21, 21, 21, 21; int(0..21)],
         [17, 21, 21, 17, 21, 17, 21, 21, 21, 21, 21, 21, 21, 21, 21, 21, 21, 17, 21, 21, 21, 21; int(0..21)],
         [18, 21, 21, 21, 18, 18, 18, 18, 21, 21, 21, 21, 21, 21, 21, 21, 21, 21, 18, 21, 21, 21; int(0..21)],
         [19, 21, 21, 21, 21, 19, 21, 21, 19, 21, 21, 21, 21, 21, 21, 21, 21, 21, 21, 19, 21, 21; int(0..21)],
         [20, 21, 21, 21, 21, 21, 21, 20, 20, 21, 21, 21, 21, 21, 21, 21, 21, 21, 21, 21, 20, 21; int(0..21)],
         [21, 21, 21, 21, 21, 21, 21, 21, 21, 21, 21, 21, 21, 21, 21, 21, 21, 21, 21, 21, 21, 21; int(0..21)];
             int(0..21)]
$ Visualisation for J_FunctionND
$  0  1  2  3  4  5  6  7  8  9 10 11 12 13 14 15 16 17 18 19 20 21
$  1  1  9 10 11  9 12 10 11  9 10 11 12 21 21 21 21 21 21 21 21 21
$  2  9  2 13 14  9 13 15 13  9 21 21 21 13 14 15 21 21 21 21 21 21
$  3 10 13  3 16 17 13 10 13 21 10 21 21 13 21 21 16 17 21 21 21 21
$  4 11 14 16  4 18 18 18 11 21 21 11 21 21 14 21 16 21 18 21 21 21
$  5  9  9 17 18  5 18 18 19  9 21 21 21 21 21 21 21 17 18 19 21 21
$  6 12 13 13 18 18  6 18 13 21 21 21 12 13 21 21 21 21 18 21 21 21
$  7 10 15 10 18 18 18  7 20 21 10 21 21 21 21 15 21 21 18 21 20 21
$  8 11 13 13 11 19 13 20  8 21 21 11 21 13 21 21 21 21 21 19 20 21
$  9  9  9 21 21  9 21 21 21  9 21 21 21 21 21 21 21 21 21 21 21 21
$ 10 10 21 10 21 21 21 10 21 21 10 21 21 21 21 21 21 21 21 21 21 21
$ 11 11 21 21 11 21 21 21 11 21 21 11 21 21 21 21 21 21 21 21 21 21
$ 12 12 21 21 21 21 12 21 21 21 21 21 12 21 21 21 21 21 21 21 21 21
$ 13 21 13 13 21 21 13 21 13 21 21 21 21 13 21 21 21 21 21 21 21 21
$ 14 21 14 21 14 21 21 21 21 21 21 21 21 21 14 21 21 21 21 21 21 21
$ 15 21 15 21 21 21 21 15 21 21 21 21 21 21 21 15 21 21 21 21 21 21
$ 16 21 21 16 16 21 21 21 21 21 21 21 21 21 21 21 16 21 21 21 21 21
$ 17 21 21 17 21 17 21 21 21 21 21 21 21 21 21 21 21 17 21 21 21 21
$ 18 21 21 21 18 18 18 18 21 21 21 21 21 21 21 21 21 21 18 21 21 21
$ 19 21 21 21 21 19 21 21 19 21 21 21 21 21 21 21 21 21 21 19 21 21
$ 20 21 21 21 21 21 21 20 20 21 21 21 21 21 21 21 21 21 21 21 20 21
$ 21 21 21 21 21 21 21 21 21 21 21 21 21 21 21 21 21 21 21 21 21 21

letting M_FunctionND be
        [[0, 0, 0, 0, 0, 0, 0, 0, 0, 0, 0, 0, 0, 0, 0, 0, 0, 0, 0, 0, 0, 0; int(0..21)],
         [0, 1, 0, 0, 0, 0, 0, 0, 0, 1, 1, 1, 1, 0, 0, 0, 0, 0, 0, 0, 0, 1; int(0..21)],
         [0, 0, 2, 0, 0, 0, 0, 0, 0, 2, 0, 0, 0, 2, 2, 2, 0, 0, 0, 0, 0, 2; int(0..21)],
         [0, 0, 0, 3, 0, 0, 0, 0, 0, 0, 3, 0, 0, 3, 0, 0, 3, 3, 0, 0, 0, 3; int(0..21)],
         [0, 0, 0, 0, 4, 0, 0, 0, 0, 0, 0, 4, 0, 0, 4, 0, 4, 0, 4, 0, 0, 4; int(0..21)],
         [0, 0, 0, 0, 0, 5, 0, 0, 0, 5, 0, 0, 0, 0, 0, 0, 0, 5, 5, 5, 0, 5; int(0..21)],
         [0, 0, 0, 0, 0, 0, 6, 0, 0, 0, 0, 0, 6, 6, 0, 0, 0, 0, 6, 0, 0, 6; int(0..21)],
         [0, 0, 0, 0, 0, 0, 0, 7, 0, 0, 7, 0, 0, 0, 0, 7, 0, 0, 7, 0, 7, 7; int(0..21)],
         [0, 0, 0, 0, 0, 0, 0, 0, 8, 0, 0, 8, 0, 8, 0, 0, 0, 0, 0, 8, 8, 8; int(0..21)],
         [0, 1, 2, 0, 0, 5, 0, 0, 0, 9, 1, 1, 1, 2, 2, 2, 0, 5, 5, 5, 0, 9; int(0..21)],
         [0, 1, 0, 3, 0, 0, 0, 7, 0, 1, 10, 1, 1, 3, 0, 7, 3, 3, 7, 0, 7, 10; int(0..21)],
         [0, 1, 0, 0, 4, 0, 0, 0, 8, 1, 1, 11, 1, 8, 4, 0, 4, 0, 4, 8, 8, 11; int(0..21)],
         [0, 1, 0, 0, 0, 0, 6, 0, 0, 1, 1, 1, 12, 6, 0, 0, 0, 0, 6, 0, 0, 12; int(0..21)],
         [0, 0, 2, 3, 0, 0, 6, 0, 8, 2, 3, 8, 6, 13, 2, 2, 3, 3, 6, 8, 8, 13; int(0..21)],
         [0, 0, 2, 0, 4, 0, 0, 0, 0, 2, 0, 4, 0, 2, 14, 2, 4, 0, 4, 0, 0, 14; int(0..21)],
         [0, 0, 2, 0, 0, 0, 0, 7, 0, 2, 7, 0, 0, 2, 2, 15, 0, 0, 7, 0, 7, 15; int(0..21)],
         [0, 0, 0, 3, 4, 0, 0, 0, 0, 0, 3, 4, 0, 3, 4, 0, 16, 3, 4, 0, 0, 16; int(0..21)],
         [0, 0, 0, 3, 0, 5, 0, 0, 0, 5, 3, 0, 0, 3, 0, 0, 3, 17, 5, 5, 0, 17; int(0..21)],
         [0, 0, 0, 0, 4, 5, 6, 7, 0, 5, 7, 4, 6, 6, 4, 7, 4, 5, 18, 5, 7, 18; int(0..21)],
         [0, 0, 0, 0, 0, 5, 0, 0, 8, 5, 0, 8, 0, 8, 0, 0, 0, 5, 5, 19, 8, 19; int(0..21)],
         [0, 0, 0, 0, 0, 0, 0, 7, 8, 0, 7, 8, 0, 8, 0, 7, 0, 0, 7, 8, 20, 20; int(0..21)],
         [0, 1, 2, 3, 4, 5, 6, 7, 8, 9, 10, 11, 12, 13, 14, 15, 16, 17, 18, 19, 20, 21; int(0..21)];
             int(0..21)]
$ Visualisation for M_FunctionND
$  0  0  0  0  0  0  0  0  0  0  0  0  0  0  0  0  0  0  0  0  0  0
$  0  1  0  0  0  0  0  0  0  1  1  1  1  0  0  0  0  0  0  0  0  1
$  0  0  2  0  0  0  0  0  0  2  0  0  0  2  2  2  0  0  0  0  0  2
$  0  0  0  3  0  0  0  0  0  0  3  0  0  3  0  0  3  3  0  0  0  3
$  0  0  0  0  4  0  0  0  0  0  0  4  0  0  4  0  4  0  4  0  0  4
$  0  0  0  0  0  5  0  0  0  5  0  0  0  0  0  0  0  5  5  5  0  5
$  0  0  0  0  0  0  6  0  0  0  0  0  6  6  0  0  0  0  6  0  0  6
$  0  0  0  0  0  0  0  7  0  0  7  0  0  0  0  7  0  0  7  0  7  7
$  0  0  0  0  0  0  0  0  8  0  0  8  0  8  0  0  0  0  0  8  8  8
$  0  1  2  0  0  5  0  0  0  9  1  1  1  2  2  2  0  5  5  5  0  9
$  0  1  0  3  0  0  0  7  0  1 10  1  1  3  0  7  3  3  7  0  7 10
$  0  1  0  0  4  0  0  0  8  1  1 11  1  8  4  0  4  0  4  8  8 11
$  0  1  0  0  0  0  6  0  0  1  1  1 12  6  0  0  0  0  6  0  0 12
$  0  0  2  3  0  0  6  0  8  2  3  8  6 13  2  2  3  3  6  8  8 13
$  0  0  2  0  4  0  0  0  0  2  0  4  0  2 14  2  4  0  4  0  0 14
$  0  0  2  0  0  0  0  7  0  2  7  0  0  2  2 15  0  0  7  0  7 15
$  0  0  0  3  4  0  0  0  0  0  3  4  0  3  4  0 16  3  4  0  0 16
$  0  0  0  3  0  5  0  0  0  5  3  0  0  3  0  0  3 17  5  5  0 17
$  0  0  0  0  4  5  6  7  0  5  7  4  6  6  4  7  4  5 18  5  7 18
$  0  0  0  0  0  5  0  0  8  5  0  8  0  8  0  0  0  5  5 19  8 19
$  0  0  0  0  0  0  0  7  8  0  7  8  0  8  0  7  0  0  7  8 20 20
$  0  1  2  3  4  5  6  7  8  9 10 11 12 13 14 15 16 17 18 19 20 21

letting R_Function1D be [0, 1, 1, 1, 1, 1, 1, 1, 1, 2, 2, 2, 2, 2, 2, 2, 2, 2, 2, 2, 2, 3; int(0..21)]
